nN = 10;
nR = 60;
nH = 2;

a = [[18, 20, 17, 17, 22, 24, 25, 24, 18, 24, 20, 21, 22, 17, 20, 21, 23, 21, 19, 25, 19, 21, 21, 25, 23, 21, 23, 18, 19, 20, 25, 23, 18, 22, 20, 20, 15, 17, 22, 15, 15, 18, 16, 17, 20, 23, 23, 24, 21, 16, 22, 15, 24, 23, 23, 25, 17, 18, 17, 19], [17, 19, 16, 19, 25, 21, 24, 23, 23, 22, 15, 20, 25, 24, 19, 21, 20, 19, 15, 22, 20, 20, 22, 18, 16, 25, 25, 18, 17, 25, 16, 18, 16, 17, 20, 25, 21, 17, 22, 15, 20, 18, 17, 19, 15, 21, 16, 16, 23, 19, 25, 22, 20, 17, 23, 25, 20, 18, 22, 20], [20, 17, 16, 24, 25, 24, 16, 20, 25, 20, 16, 22, 20, 25, 15, 17, 21, 16, 22, 24, 17, 16, 16, 17, 18, 17, 17, 18, 19, 23, 25, 15, 19, 20, 17, 16, 20, 19, 21, 17, 18, 24, 20, 15, 23, 23, 19, 25, 22, 25, 24, 25, 16, 23, 25, 16, 18, 18, 22, 25], [22, 17, 22, 23, 19, 16, 22, 19, 21, 24, 17, 25, 15, 15, 18, 17, 24, 19, 21, 15, 17, 23, 21, 15, 22, 21, 23, 18, 15, 15, 21, 20, 21, 21, 19, 22, 23, 20, 18, 17, 24, 17, 15, 19, 16, 15, 23, 20, 15, 18, 25, 15, 20, 22, 21, 15, 24, 25, 21, 24], [23, 24, 25, 25, 15, 20, 20, 25, 21, 17, 21, 20, 20, 24, 23, 22, 23, 16, 21, 25, 25, 21, 17, 19, 21, 24, 22, 25, 16, 25, 19, 24, 21, 22, 22, 20, 20, 22, 16, 24, 15, 21, 21, 22, 21, 18, 20, 16, 15, 20, 22, 19, 17, 16, 25, 25, 21, 17, 23, 18], [15, 24, 16, 16, 15, 22, 18, 20, 24, 19, 22, 18, 24, 22, 22, 16, 22, 16, 21, 16, 21, 24, 17, 23, 22, 20, 17, 23, 19, 23, 20, 21, 18, 22, 16, 15, 22, 15, 22, 16, 21, 25, 17, 18, 19, 23, 22, 22, 25, 19, 21, 25, 23, 16, 21, 15, 19, 15, 21, 22], [18, 16, 19, 22, 20, 15, 18, 21, 22, 19, 20, 22, 17, 25, 18, 20, 16, 24, 21, 23, 23, 15, 16, 23, 20, 22, 17, 21, 23, 17, 20, 23, 25, 16, 17, 22, 25, 24, 24, 24, 19, 15, 23, 19, 17, 18, 18, 24, 18, 19, 19, 21, 21, 18, 19, 17, 23, 20, 15, 18], [18, 22, 18, 24, 23, 16, 21, 23, 20, 20, 16, 24, 24, 18, 19, 15, 22, 22, 15, 23, 21, 23, 25, 24, 18, 16, 17, 19, 15, 19, 18, 19, 22, 21, 22, 16, 15, 16, 15, 21, 16, 20, 19, 18, 24, 24, 16, 23, 16, 15, 19, 20, 19, 17, 17, 24, 20, 23, 18, 18], [15, 15, 23, 15, 19, 23, 22, 18, 22, 17, 24, 24, 20, 23, 19, 16, 16, 25, 25, 21, 24, 22, 18, 16, 25, 23, 16, 25, 22, 15, 24, 17, 15, 17, 22, 21, 15, 23, 22, 20, 16, 21, 22, 23, 16, 19, 22, 17, 24, 22, 25, 23, 24, 22, 23, 21, 19, 15, 23, 24], [21, 22, 17, 21, 25, 22, 20, 22, 23, 21, 15, 23, 20, 15, 22, 15, 24, 22, 21, 16, 21, 16, 21, 16, 17, 19, 23, 25, 17, 17, 24, 21, 15, 15, 20, 19, 19, 22, 21, 20, 22, 25, 24, 15, 19, 17, 23, 22, 21, 22, 17, 24, 16, 21, 25, 25, 16, 17, 21, 25]];
c = [[[0, 0, 0, 0, 0, 0, 0, 0, 0, 0, 0, 0, 0, 0, 0, 0, 0, 0, 0, 0, 0, 0, 0, 0, 0, 0, 0, 0, 0, 0, 0, 0, 0, 0, 0, 0, 0, 0, 0, 0, 0, 0, 0, 0, 0, 0, 0, 0, 0, 0, 0, 0, 0, 0, 0, 0, 0, 0, 0, 0], [41, 48, 30, 45, 38, 43, 43, 42, 37, 34, 39, 44, 36, 46, 34, 35, 31, 47, 41, 35, 45, 42, 30, 50, 32, 41, 41, 33, 37, 33, 45, 44, 39, 34, 42, 46, 35, 33, 30, 45, 30, 38, 48, 47, 32, 36, 44, 49, 36, 50, 37, 44, 33, 33, 46, 41, 46, 40, 49, 33], [37, 35, 42, 39, 46, 44, 50, 38, 31, 32, 48, 45, 45, 39, 45, 33, 40, 37, 40, 35, 38, 41, 38, 41, 38, 32, 30, 32, 44, 47, 30, 42, 45, 50, 39, 43, 48, 43, 32, 45, 36, 43, 33, 49, 49, 49, 50, 50, 45, 36, 46, 47, 41, 30, 50, 33, 36, 48, 35, 41], [42, 47, 39, 40, 31, 43, 38, 45, 45, 39, 46, 30, 37, 47, 38, 44, 33, 31, 32, 38, 45, 38, 46, 45, 44, 50, 31, 47, 42, 32, 41, 48, 48, 35, 50, 33, 40, 40, 47, 43, 38, 38, 44, 41, 34, 42, 42, 30, 50, 38, 36, 34, 43, 30, 33, 31, 44, 48, 32, 50], [47, 34, 49, 39, 30, 50, 44, 34, 32, 47, 31, 47, 40, 36, 42, 42, 42, 47, 46, 35, 32, 32, 50, 50, 47, 46, 50, 42, 31, 49, 40, 48, 43, 49, 35, 34, 47, 41, 40, 45, 44, 31, 32, 39, 43, 38, 48, 40, 40, 42, 41, 31, 31, 32, 37, 43, 38, 37, 43, 50], [47, 45, 35, 46, 48, 45, 42, 38, 36, 44, 32, 48, 38, 37, 39, 48, 33, 48, 34, 49, 46, 46, 50, 49, 42, 31, 46, 36, 44, 30, 34, 41, 42, 39, 50, 43, 37, 47, 43, 49, 41, 48, 35, 48, 49, 30, 35, 33, 36, 34, 37, 34, 48, 47, 30, 45, 49, 48, 45, 43], [43, 40, 31, 47, 37, 38, 33, 43, 49, 38, 39, 49, 50, 50, 37, 32, 47, 32, 33, 45, 37, 38, 50, 49, 47, 34, 31, 30, 36, 33, 38, 42, 42, 40, 47, 39, 40, 40, 48, 32, 31, 34, 42, 46, 33, 30, 36, 49, 31, 45, 44, 47, 32, 45, 37, 39, 45, 37, 41, 41], [31, 39, 49, 44, 49, 36, 30, 47, 46, 49, 33, 42, 33, 37, 37, 33, 47, 31, 40, 47, 49, 49, 49, 35, 44, 43, 36, 42, 35, 39, 37, 48, 41, 31, 49, 39, 37, 45, 46, 45, 48, 33, 39, 45, 46, 43, 49, 39, 30, 45, 49, 48, 42, 33, 48, 49, 47, 47, 36, 45], [47, 44, 34, 43, 42, 43, 48, 49, 48, 33, 42, 43, 36, 43, 30, 45, 44, 49, 31, 50, 50, 36, 49, 44, 30, 43, 38, 46, 50, 37, 32, 30, 43, 30, 48, 46, 37, 44, 49, 30, 30, 33, 34, 32, 41, 32, 39, 42, 45, 38, 35, 43, 42, 42, 31, 30, 45, 44, 48, 36], [35, 33, 38, 36, 31, 48, 47, 47, 33, 43, 34, 48, 37, 46, 30, 50, 38, 39, 34, 39, 38, 37, 49, 46, 45, 42, 46, 39, 42, 30, 48, 40, 31, 42, 38, 45, 46, 34, 42, 33, 34, 42, 33, 42, 38, 41, 48, 41, 45, 44, 40, 33, 48, 48, 40, 34, 35, 48, 37, 42]], [[0, 0, 0, 0, 0, 0, 0, 0, 0, 0, 0, 0, 0, 0, 0, 0, 0, 0, 0, 0, 0, 0, 0, 0, 0, 0, 0, 0, 0, 0, 0, 0, 0, 0, 0, 0, 0, 0, 0, 0, 0, 0, 0, 0, 0, 0, 0, 0, 0, 0, 0, 0, 0, 0, 0, 0, 0, 0, 0, 0], [0, 0, 0, 0, 0, 0, 0, 0, 0, 0, 0, 0, 0, 0, 0, 0, 0, 0, 0, 0, 0, 0, 0, 0, 0, 0, 0, 0, 0, 0, 0, 0, 0, 0, 0, 0, 0, 0, 0, 0, 0, 0, 0, 0, 0, 0, 0, 0, 0, 0, 0, 0, 0, 0, 0, 0, 0, 0, 0, 0], [40, 45, 38, 46, 49, 49, 37, 43, 44, 32, 40, 33, 49, 40, 44, 38, 45, 44, 41, 30, 41, 31, 45, 38, 43, 42, 39, 44, 46, 44, 46, 45, 31, 33, 47, 34, 48, 40, 43, 46, 46, 47, 41, 42, 42, 48, 41, 36, 31, 39, 44, 39, 39, 49, 42, 47, 30, 42, 47, 32], [41, 41, 46, 49, 43, 49, 32, 43, 32, 37, 39, 31, 34, 50, 30, 48, 37, 30, 46, 34, 45, 35, 33, 48, 32, 38, 40, 42, 50, 50, 36, 45, 50, 35, 31, 34, 40, 33, 40, 47, 48, 36, 42, 38, 31, 35, 30, 31, 39, 43, 38, 46, 34, 41, 47, 48, 37, 41, 32, 41], [39, 45, 49, 37, 35, 48, 46, 42, 30, 31, 40, 35, 41, 39, 43, 34, 33, 44, 40, 40, 43, 46, 38, 39, 44, 37, 30, 33, 32, 34, 49, 30, 47, 37, 48, 46, 37, 40, 49, 39, 48, 47, 37, 49, 36, 47, 37, 38, 42, 43, 46, 42, 30, 36, 47, 38, 36, 37, 30, 45], [45, 48, 35, 45, 39, 46, 36, 48, 32, 42, 33, 40, 42, 41, 50, 32, 35, 33, 47, 43, 50, 50, 31, 49, 47, 46, 39, 48, 40, 37, 48, 32, 40, 43, 47, 35, 47, 39, 50, 37, 36, 42, 50, 46, 34, 50, 45, 35, 34, 47, 40, 49, 41, 34, 37, 40, 38, 36, 47, 36], [48, 43, 40, 38, 39, 32, 35, 32, 45, 32, 50, 48, 39, 50, 32, 44, 31, 43, 47, 46, 39, 44, 31, 40, 49, 49, 34, 45, 34, 36, 38, 45, 48, 37, 45, 47, 38, 40, 50, 42, 37, 35, 50, 49, 39, 50, 33, 35, 30, 35, 30, 48, 40, 46, 37, 32, 37, 45, 45, 46], [46, 35, 31, 38, 39, 36, 39, 31, 45, 50, 39, 39, 48, 47, 46, 49, 37, 46, 41, 40, 33, 47, 37, 37, 49, 45, 49, 35, 45, 36, 49, 45, 39, 33, 31, 43, 34, 49, 44, 40, 36, 36, 40, 36, 48, 50, 42, 41, 49, 46, 47, 48, 45, 38, 43, 36, 31, 43, 34, 31], [42, 38, 47, 39, 35, 41, 41, 45, 34, 36, 35, 41, 35, 49, 47, 46, 37, 45, 31, 48, 38, 45, 31, 46, 44, 36, 34, 45, 34, 47, 39, 30, 40, 41, 46, 33, 50, 31, 31, 50, 43, 39, 38, 40, 49, 38, 50, 39, 30, 34, 47, 49, 44, 37, 47, 43, 34, 39, 49, 37], [47, 40, 50, 32, 38, 40, 47, 46, 48, 35, 30, 30, 35, 41, 50, 39, 38, 48, 49, 49, 43, 45, 34, 37, 34, 37, 40, 49, 35, 49, 47, 38, 39, 48, 33, 43, 34, 44, 36, 45, 46, 42, 34, 33, 46, 38, 48, 34, 43, 44, 36, 35, 46, 47, 49, 44, 44, 48, 46, 35]], [[0, 0, 0, 0, 0, 0, 0, 0, 0, 0, 0, 0, 0, 0, 0, 0, 0, 0, 0, 0, 0, 0, 0, 0, 0, 0, 0, 0, 0, 0, 0, 0, 0, 0, 0, 0, 0, 0, 0, 0, 0, 0, 0, 0, 0, 0, 0, 0, 0, 0, 0, 0, 0, 0, 0, 0, 0, 0, 0, 0], [0, 0, 0, 0, 0, 0, 0, 0, 0, 0, 0, 0, 0, 0, 0, 0, 0, 0, 0, 0, 0, 0, 0, 0, 0, 0, 0, 0, 0, 0, 0, 0, 0, 0, 0, 0, 0, 0, 0, 0, 0, 0, 0, 0, 0, 0, 0, 0, 0, 0, 0, 0, 0, 0, 0, 0, 0, 0, 0, 0], [0, 0, 0, 0, 0, 0, 0, 0, 0, 0, 0, 0, 0, 0, 0, 0, 0, 0, 0, 0, 0, 0, 0, 0, 0, 0, 0, 0, 0, 0, 0, 0, 0, 0, 0, 0, 0, 0, 0, 0, 0, 0, 0, 0, 0, 0, 0, 0, 0, 0, 0, 0, 0, 0, 0, 0, 0, 0, 0, 0], [30, 42, 40, 43, 38, 40, 44, 31, 50, 33, 36, 37, 34, 40, 38, 45, 44, 50, 39, 46, 31, 34, 39, 40, 33, 49, 50, 45, 42, 35, 42, 37, 46, 44, 46, 41, 47, 33, 36, 37, 41, 47, 35, 38, 46, 40, 40, 42, 41, 40, 35, 50, 35, 31, 39, 37, 43, 38, 48, 37], [38, 48, 41, 38, 31, 44, 47, 43, 45, 49, 40, 40, 49, 50, 45, 30, 41, 39, 36, 42, 49, 45, 33, 48, 42, 33, 41, 30, 49, 40, 36, 46, 31, 46, 37, 47, 30, 38, 42, 32, 32, 39, 44, 30, 48, 38, 30, 31, 43, 43, 44, 39, 38, 41, 41, 36, 30, 32, 45, 46], [36, 36, 36, 46, 44, 30, 38, 49, 30, 41, 37, 34, 31, 46, 44, 48, 37, 30, 35, 39, 31, 40, 35, 37, 44, 39, 37, 40, 37, 45, 32, 43, 45, 41, 46, 38, 33, 30, 43, 30, 48, 37, 32, 32, 30, 31, 39, 36, 50, 34, 35, 41, 37, 41, 42, 40, 50, 41, 37, 36], [46, 38, 35, 46, 30, 45, 38, 44, 33, 39, 50, 44, 38, 41, 42, 30, 40, 43, 39, 50, 44, 42, 43, 42, 34, 35, 36, 46, 48, 34, 43, 32, 30, 32, 50, 41, 33, 48, 37, 31, 35, 31, 39, 47, 43, 46, 35, 38, 48, 47, 34, 33, 42, 48, 32, 41, 49, 49, 33, 44], [36, 33, 46, 49, 36, 41, 38, 37, 43, 33, 45, 40, 46, 48, 47, 34, 33, 50, 40, 39, 49, 42, 48, 41, 30, 30, 49, 47, 37, 32, 31, 40, 35, 32, 31, 49, 36, 45, 48, 36, 42, 40, 33, 33, 43, 50, 38, 40, 39, 35, 38, 40, 36, 41, 43, 40, 32, 48, 43, 40], [31, 41, 49, 41, 42, 30, 41, 32, 37, 50, 41, 45, 45, 44, 33, 46, 39, 38, 40, 45, 49, 37, 30, 38, 34, 42, 35, 32, 39, 32, 32, 43, 49, 37, 31, 42, 39, 46, 39, 45, 34, 50, 44, 50, 46, 44, 47, 31, 37, 48, 47, 44, 42, 43, 50, 36, 30, 43, 35, 46], [34, 50, 50, 41, 34, 45, 46, 37, 46, 36, 30, 36, 37, 30, 50, 32, 49, 34, 37, 42, 47, 30, 32, 41, 49, 33, 49, 49, 50, 38, 41, 41, 41, 39, 48, 38, 33, 44, 41, 31, 31, 33, 36, 42, 42, 40, 32, 49, 44, 42, 46, 34, 36, 47, 34, 33, 45, 30, 37, 37]], [[0, 0, 0, 0, 0, 0, 0, 0, 0, 0, 0, 0, 0, 0, 0, 0, 0, 0, 0, 0, 0, 0, 0, 0, 0, 0, 0, 0, 0, 0, 0, 0, 0, 0, 0, 0, 0, 0, 0, 0, 0, 0, 0, 0, 0, 0, 0, 0, 0, 0, 0, 0, 0, 0, 0, 0, 0, 0, 0, 0], [0, 0, 0, 0, 0, 0, 0, 0, 0, 0, 0, 0, 0, 0, 0, 0, 0, 0, 0, 0, 0, 0, 0, 0, 0, 0, 0, 0, 0, 0, 0, 0, 0, 0, 0, 0, 0, 0, 0, 0, 0, 0, 0, 0, 0, 0, 0, 0, 0, 0, 0, 0, 0, 0, 0, 0, 0, 0, 0, 0], [0, 0, 0, 0, 0, 0, 0, 0, 0, 0, 0, 0, 0, 0, 0, 0, 0, 0, 0, 0, 0, 0, 0, 0, 0, 0, 0, 0, 0, 0, 0, 0, 0, 0, 0, 0, 0, 0, 0, 0, 0, 0, 0, 0, 0, 0, 0, 0, 0, 0, 0, 0, 0, 0, 0, 0, 0, 0, 0, 0], [0, 0, 0, 0, 0, 0, 0, 0, 0, 0, 0, 0, 0, 0, 0, 0, 0, 0, 0, 0, 0, 0, 0, 0, 0, 0, 0, 0, 0, 0, 0, 0, 0, 0, 0, 0, 0, 0, 0, 0, 0, 0, 0, 0, 0, 0, 0, 0, 0, 0, 0, 0, 0, 0, 0, 0, 0, 0, 0, 0], [32, 39, 31, 50, 45, 34, 31, 43, 30, 35, 34, 40, 48, 32, 48, 47, 41, 43, 50, 44, 43, 37, 46, 50, 38, 40, 38, 35, 32, 38, 30, 46, 50, 38, 46, 41, 36, 43, 38, 39, 40, 41, 38, 47, 43, 40, 45, 30, 32, 45, 46, 50, 49, 44, 33, 48, 36, 40, 33, 45], [39, 45, 35, 33, 37, 41, 43, 45, 49, 38, 33, 50, 31, 48, 44, 36, 46, 40, 30, 31, 49, 48, 30, 42, 31, 45, 37, 50, 40, 45, 37, 38, 49, 31, 32, 37, 35, 48, 45, 37, 48, 37, 46, 47, 35, 38, 42, 41, 36, 50, 42, 36, 43, 50, 42, 34, 42, 44, 35, 44], [40, 31, 48, 46, 47, 42, 31, 37, 33, 47, 37, 39, 37, 38, 42, 48, 46, 36, 40, 36, 46, 42, 43, 36, 43, 32, 31, 37, 45, 46, 33, 34, 34, 35, 50, 40, 35, 34, 46, 34, 34, 38, 36, 39, 34, 37, 41, 49, 40, 42, 31, 41, 38, 33, 48, 49, 50, 40, 36, 47], [39, 42, 47, 41, 37, 32, 35, 38, 49, 48, 40, 31, 43, 30, 50, 46, 37, 47, 45, 46, 39, 48, 47, 47, 33, 35, 43, 35, 39, 44, 38, 34, 46, 44, 43, 35, 33, 44, 42, 46, 46, 33, 30, 47, 39, 50, 39, 44, 37, 44, 45, 44, 34, 39, 41, 34, 32, 31, 50, 45], [31, 31, 40, 36, 31, 43, 44, 46, 46, 39, 47, 30, 48, 48, 41, 30, 46, 38, 43, 50, 41, 34, 44, 33, 49, 47, 32, 39, 36, 31, 44, 36, 32, 44, 48, 34, 37, 47, 44, 39, 31, 47, 42, 40, 49, 39, 37, 45, 31, 44, 46, 46, 43, 40, 30, 39, 46, 37, 31, 43], [43, 39, 50, 34, 46, 40, 42, 34, 43, 43, 33, 31, 44, 32, 36, 36, 41, 35, 35, 42, 30, 45, 35, 47, 45, 45, 38, 50, 31, 43, 50, 46, 33, 35, 30, 50, 32, 50, 43, 43, 40, 41, 40, 36, 45, 49, 40, 49, 47, 32, 33, 44, 30, 34, 30, 31, 43, 30, 49, 50]], [[0, 0, 0, 0, 0, 0, 0, 0, 0, 0, 0, 0, 0, 0, 0, 0, 0, 0, 0, 0, 0, 0, 0, 0, 0, 0, 0, 0, 0, 0, 0, 0, 0, 0, 0, 0, 0, 0, 0, 0, 0, 0, 0, 0, 0, 0, 0, 0, 0, 0, 0, 0, 0, 0, 0, 0, 0, 0, 0, 0], [0, 0, 0, 0, 0, 0, 0, 0, 0, 0, 0, 0, 0, 0, 0, 0, 0, 0, 0, 0, 0, 0, 0, 0, 0, 0, 0, 0, 0, 0, 0, 0, 0, 0, 0, 0, 0, 0, 0, 0, 0, 0, 0, 0, 0, 0, 0, 0, 0, 0, 0, 0, 0, 0, 0, 0, 0, 0, 0, 0], [0, 0, 0, 0, 0, 0, 0, 0, 0, 0, 0, 0, 0, 0, 0, 0, 0, 0, 0, 0, 0, 0, 0, 0, 0, 0, 0, 0, 0, 0, 0, 0, 0, 0, 0, 0, 0, 0, 0, 0, 0, 0, 0, 0, 0, 0, 0, 0, 0, 0, 0, 0, 0, 0, 0, 0, 0, 0, 0, 0], [0, 0, 0, 0, 0, 0, 0, 0, 0, 0, 0, 0, 0, 0, 0, 0, 0, 0, 0, 0, 0, 0, 0, 0, 0, 0, 0, 0, 0, 0, 0, 0, 0, 0, 0, 0, 0, 0, 0, 0, 0, 0, 0, 0, 0, 0, 0, 0, 0, 0, 0, 0, 0, 0, 0, 0, 0, 0, 0, 0], [0, 0, 0, 0, 0, 0, 0, 0, 0, 0, 0, 0, 0, 0, 0, 0, 0, 0, 0, 0, 0, 0, 0, 0, 0, 0, 0, 0, 0, 0, 0, 0, 0, 0, 0, 0, 0, 0, 0, 0, 0, 0, 0, 0, 0, 0, 0, 0, 0, 0, 0, 0, 0, 0, 0, 0, 0, 0, 0, 0], [38, 41, 43, 40, 31, 49, 30, 48, 32, 41, 40, 48, 46, 44, 40, 32, 46, 39, 39, 49, 34, 50, 31, 45, 32, 37, 44, 41, 46, 42, 46, 48, 39, 41, 37, 32, 30, 45, 43, 36, 33, 38, 36, 38, 39, 36, 44, 37, 41, 45, 33, 33, 37, 35, 40, 31, 33, 46, 32, 47], [31, 36, 48, 48, 37, 47, 35, 34, 35, 49, 49, 41, 35, 37, 35, 30, 34, 31, 32, 39, 42, 34, 38, 40, 43, 38, 39, 48, 33, 43, 35, 48, 45, 42, 42, 31, 48, 42, 39, 48, 37, 34, 39, 46, 36, 49, 37, 35, 41, 49, 49, 36, 49, 44, 46, 45, 36, 44, 48, 44], [38, 35, 45, 38, 37, 40, 40, 31, 39, 36, 45, 46, 43, 31, 45, 37, 43, 30, 47, 43, 39, 30, 41, 30, 30, 48, 43, 34, 39, 41, 39, 50, 49, 30, 50, 42, 34, 43, 50, 30, 50, 38, 37, 41, 36, 40, 36, 44, 39, 47, 33, 41, 45, 34, 39, 34, 38, 32, 39, 35], [35, 43, 32, 36, 43, 32, 31, 43, 36, 49, 38, 50, 42, 40, 34, 45, 36, 43, 40, 33, 38, 43, 32, 35, 38, 48, 43, 30, 41, 40, 39, 36, 37, 42, 30, 44, 42, 37, 43, 32, 40, 47, 31, 47, 34, 49, 30, 36, 41, 34, 41, 45, 38, 47, 38, 49, 43, 32, 43, 37], [33, 32, 30, 31, 33, 45, 32, 35, 37, 32, 43, 32, 47, 37, 34, 50, 42, 31, 31, 34, 32, 46, 37, 33, 46, 48, 33, 48, 32, 41, 42, 34, 45, 36, 37, 41, 33, 42, 40, 44, 30, 48, 44, 49, 42, 38, 38, 36, 34, 32, 41, 30, 39, 41, 38, 40, 40, 50, 38, 34]], [[0, 0, 0, 0, 0, 0, 0, 0, 0, 0, 0, 0, 0, 0, 0, 0, 0, 0, 0, 0, 0, 0, 0, 0, 0, 0, 0, 0, 0, 0, 0, 0, 0, 0, 0, 0, 0, 0, 0, 0, 0, 0, 0, 0, 0, 0, 0, 0, 0, 0, 0, 0, 0, 0, 0, 0, 0, 0, 0, 0], [0, 0, 0, 0, 0, 0, 0, 0, 0, 0, 0, 0, 0, 0, 0, 0, 0, 0, 0, 0, 0, 0, 0, 0, 0, 0, 0, 0, 0, 0, 0, 0, 0, 0, 0, 0, 0, 0, 0, 0, 0, 0, 0, 0, 0, 0, 0, 0, 0, 0, 0, 0, 0, 0, 0, 0, 0, 0, 0, 0], [0, 0, 0, 0, 0, 0, 0, 0, 0, 0, 0, 0, 0, 0, 0, 0, 0, 0, 0, 0, 0, 0, 0, 0, 0, 0, 0, 0, 0, 0, 0, 0, 0, 0, 0, 0, 0, 0, 0, 0, 0, 0, 0, 0, 0, 0, 0, 0, 0, 0, 0, 0, 0, 0, 0, 0, 0, 0, 0, 0], [0, 0, 0, 0, 0, 0, 0, 0, 0, 0, 0, 0, 0, 0, 0, 0, 0, 0, 0, 0, 0, 0, 0, 0, 0, 0, 0, 0, 0, 0, 0, 0, 0, 0, 0, 0, 0, 0, 0, 0, 0, 0, 0, 0, 0, 0, 0, 0, 0, 0, 0, 0, 0, 0, 0, 0, 0, 0, 0, 0], [0, 0, 0, 0, 0, 0, 0, 0, 0, 0, 0, 0, 0, 0, 0, 0, 0, 0, 0, 0, 0, 0, 0, 0, 0, 0, 0, 0, 0, 0, 0, 0, 0, 0, 0, 0, 0, 0, 0, 0, 0, 0, 0, 0, 0, 0, 0, 0, 0, 0, 0, 0, 0, 0, 0, 0, 0, 0, 0, 0], [0, 0, 0, 0, 0, 0, 0, 0, 0, 0, 0, 0, 0, 0, 0, 0, 0, 0, 0, 0, 0, 0, 0, 0, 0, 0, 0, 0, 0, 0, 0, 0, 0, 0, 0, 0, 0, 0, 0, 0, 0, 0, 0, 0, 0, 0, 0, 0, 0, 0, 0, 0, 0, 0, 0, 0, 0, 0, 0, 0], [45, 42, 37, 32, 42, 46, 34, 48, 49, 32, 43, 33, 43, 36, 37, 40, 41, 37, 50, 37, 36, 45, 44, 45, 43, 39, 32, 45, 34, 37, 35, 45, 48, 30, 33, 40, 33, 47, 43, 49, 30, 44, 38, 35, 48, 31, 48, 45, 49, 49, 38, 48, 31, 47, 49, 35, 48, 44, 40, 47], [39, 32, 38, 42, 31, 46, 45, 45, 33, 39, 38, 40, 45, 39, 31, 49, 50, 49, 41, 39, 49, 47, 35, 31, 47, 40, 30, 49, 39, 38, 36, 50, 31, 34, 45, 40, 35, 30, 46, 45, 46, 38, 43, 49, 32, 42, 47, 41, 45, 40, 43, 49, 30, 41, 44, 37, 47, 36, 34, 49], [49, 41, 34, 30, 49, 32, 38, 35, 34, 40, 44, 46, 42, 46, 44, 33, 39, 45, 42, 45, 48, 47, 49, 35, 41, 49, 44, 38, 39, 36, 40, 40, 50, 45, 42, 46, 33, 30, 39, 48, 41, 30, 40, 40, 50, 37, 46, 38, 35, 31, 41, 42, 40, 47, 32, 34, 35, 35, 40, 36], [44, 46, 33, 37, 35, 33, 40, 30, 42, 44, 31, 32, 43, 43, 42, 30, 36, 39, 36, 43, 33, 37, 50, 50, 35, 50, 50, 48, 33, 42, 43, 37, 36, 36, 44, 36, 48, 39, 30, 49, 50, 39, 40, 40, 38, 48, 32, 46, 32, 47, 48, 39, 38, 38, 36, 42, 32, 43, 40, 44]], [[0, 0, 0, 0, 0, 0, 0, 0, 0, 0, 0, 0, 0, 0, 0, 0, 0, 0, 0, 0, 0, 0, 0, 0, 0, 0, 0, 0, 0, 0, 0, 0, 0, 0, 0, 0, 0, 0, 0, 0, 0, 0, 0, 0, 0, 0, 0, 0, 0, 0, 0, 0, 0, 0, 0, 0, 0, 0, 0, 0], [0, 0, 0, 0, 0, 0, 0, 0, 0, 0, 0, 0, 0, 0, 0, 0, 0, 0, 0, 0, 0, 0, 0, 0, 0, 0, 0, 0, 0, 0, 0, 0, 0, 0, 0, 0, 0, 0, 0, 0, 0, 0, 0, 0, 0, 0, 0, 0, 0, 0, 0, 0, 0, 0, 0, 0, 0, 0, 0, 0], [0, 0, 0, 0, 0, 0, 0, 0, 0, 0, 0, 0, 0, 0, 0, 0, 0, 0, 0, 0, 0, 0, 0, 0, 0, 0, 0, 0, 0, 0, 0, 0, 0, 0, 0, 0, 0, 0, 0, 0, 0, 0, 0, 0, 0, 0, 0, 0, 0, 0, 0, 0, 0, 0, 0, 0, 0, 0, 0, 0], [0, 0, 0, 0, 0, 0, 0, 0, 0, 0, 0, 0, 0, 0, 0, 0, 0, 0, 0, 0, 0, 0, 0, 0, 0, 0, 0, 0, 0, 0, 0, 0, 0, 0, 0, 0, 0, 0, 0, 0, 0, 0, 0, 0, 0, 0, 0, 0, 0, 0, 0, 0, 0, 0, 0, 0, 0, 0, 0, 0], [0, 0, 0, 0, 0, 0, 0, 0, 0, 0, 0, 0, 0, 0, 0, 0, 0, 0, 0, 0, 0, 0, 0, 0, 0, 0, 0, 0, 0, 0, 0, 0, 0, 0, 0, 0, 0, 0, 0, 0, 0, 0, 0, 0, 0, 0, 0, 0, 0, 0, 0, 0, 0, 0, 0, 0, 0, 0, 0, 0], [0, 0, 0, 0, 0, 0, 0, 0, 0, 0, 0, 0, 0, 0, 0, 0, 0, 0, 0, 0, 0, 0, 0, 0, 0, 0, 0, 0, 0, 0, 0, 0, 0, 0, 0, 0, 0, 0, 0, 0, 0, 0, 0, 0, 0, 0, 0, 0, 0, 0, 0, 0, 0, 0, 0, 0, 0, 0, 0, 0], [0, 0, 0, 0, 0, 0, 0, 0, 0, 0, 0, 0, 0, 0, 0, 0, 0, 0, 0, 0, 0, 0, 0, 0, 0, 0, 0, 0, 0, 0, 0, 0, 0, 0, 0, 0, 0, 0, 0, 0, 0, 0, 0, 0, 0, 0, 0, 0, 0, 0, 0, 0, 0, 0, 0, 0, 0, 0, 0, 0], [37, 47, 42, 30, 50, 46, 37, 50, 37, 32, 40, 45, 49, 48, 38, 45, 31, 33, 42, 30, 44, 34, 47, 37, 37, 47, 44, 42, 39, 44, 47, 44, 37, 49, 45, 38, 30, 50, 47, 34, 32, 35, 33, 45, 40, 45, 47, 42, 43, 32, 43, 41, 40, 39, 37, 43, 43, 39, 38, 39], [43, 34, 40, 36, 43, 36, 35, 33, 48, 40, 36, 47, 47, 30, 30, 38, 31, 48, 34, 32, 47, 30, 45, 39, 35, 44, 39, 37, 46, 46, 50, 35, 42, 34, 33, 50, 33, 41, 37, 45, 45, 43, 38, 42, 37, 32, 33, 32, 30, 48, 30, 39, 43, 41, 46, 37, 37, 50, 41, 42], [35, 41, 46, 49, 50, 38, 31, 45, 41, 30, 37, 47, 44, 33, 38, 41, 45, 38, 47, 34, 47, 46, 41, 42, 44, 41, 42, 31, 50, 37, 37, 42, 40, 42, 47, 36, 35, 41, 39, 37, 43, 32, 33, 32, 38, 37, 32, 30, 41, 35, 40, 38, 36, 32, 33, 42, 40, 35, 49, 48]], [[0, 0, 0, 0, 0, 0, 0, 0, 0, 0, 0, 0, 0, 0, 0, 0, 0, 0, 0, 0, 0, 0, 0, 0, 0, 0, 0, 0, 0, 0, 0, 0, 0, 0, 0, 0, 0, 0, 0, 0, 0, 0, 0, 0, 0, 0, 0, 0, 0, 0, 0, 0, 0, 0, 0, 0, 0, 0, 0, 0], [0, 0, 0, 0, 0, 0, 0, 0, 0, 0, 0, 0, 0, 0, 0, 0, 0, 0, 0, 0, 0, 0, 0, 0, 0, 0, 0, 0, 0, 0, 0, 0, 0, 0, 0, 0, 0, 0, 0, 0, 0, 0, 0, 0, 0, 0, 0, 0, 0, 0, 0, 0, 0, 0, 0, 0, 0, 0, 0, 0], [0, 0, 0, 0, 0, 0, 0, 0, 0, 0, 0, 0, 0, 0, 0, 0, 0, 0, 0, 0, 0, 0, 0, 0, 0, 0, 0, 0, 0, 0, 0, 0, 0, 0, 0, 0, 0, 0, 0, 0, 0, 0, 0, 0, 0, 0, 0, 0, 0, 0, 0, 0, 0, 0, 0, 0, 0, 0, 0, 0], [0, 0, 0, 0, 0, 0, 0, 0, 0, 0, 0, 0, 0, 0, 0, 0, 0, 0, 0, 0, 0, 0, 0, 0, 0, 0, 0, 0, 0, 0, 0, 0, 0, 0, 0, 0, 0, 0, 0, 0, 0, 0, 0, 0, 0, 0, 0, 0, 0, 0, 0, 0, 0, 0, 0, 0, 0, 0, 0, 0], [0, 0, 0, 0, 0, 0, 0, 0, 0, 0, 0, 0, 0, 0, 0, 0, 0, 0, 0, 0, 0, 0, 0, 0, 0, 0, 0, 0, 0, 0, 0, 0, 0, 0, 0, 0, 0, 0, 0, 0, 0, 0, 0, 0, 0, 0, 0, 0, 0, 0, 0, 0, 0, 0, 0, 0, 0, 0, 0, 0], [0, 0, 0, 0, 0, 0, 0, 0, 0, 0, 0, 0, 0, 0, 0, 0, 0, 0, 0, 0, 0, 0, 0, 0, 0, 0, 0, 0, 0, 0, 0, 0, 0, 0, 0, 0, 0, 0, 0, 0, 0, 0, 0, 0, 0, 0, 0, 0, 0, 0, 0, 0, 0, 0, 0, 0, 0, 0, 0, 0], [0, 0, 0, 0, 0, 0, 0, 0, 0, 0, 0, 0, 0, 0, 0, 0, 0, 0, 0, 0, 0, 0, 0, 0, 0, 0, 0, 0, 0, 0, 0, 0, 0, 0, 0, 0, 0, 0, 0, 0, 0, 0, 0, 0, 0, 0, 0, 0, 0, 0, 0, 0, 0, 0, 0, 0, 0, 0, 0, 0], [0, 0, 0, 0, 0, 0, 0, 0, 0, 0, 0, 0, 0, 0, 0, 0, 0, 0, 0, 0, 0, 0, 0, 0, 0, 0, 0, 0, 0, 0, 0, 0, 0, 0, 0, 0, 0, 0, 0, 0, 0, 0, 0, 0, 0, 0, 0, 0, 0, 0, 0, 0, 0, 0, 0, 0, 0, 0, 0, 0], [47, 50, 42, 40, 40, 39, 49, 44, 41, 39, 41, 39, 34, 39, 38, 42, 37, 34, 46, 34, 33, 47, 48, 48, 47, 40, 45, 42, 39, 41, 35, 48, 44, 46, 39, 39, 41, 33, 46, 50, 40, 37, 47, 42, 43, 32, 30, 34, 49, 34, 35, 49, 43, 39, 48, 50, 33, 32, 42, 40], [41, 40, 34, 35, 32, 30, 32, 46, 33, 34, 39, 36, 40, 42, 46, 37, 35, 36, 42, 40, 31, 43, 40, 37, 43, 44, 36, 50, 31, 46, 36, 47, 43, 43, 31, 33, 46, 34, 31, 30, 36, 30, 31, 39, 38, 48, 44, 42, 42, 47, 49, 37, 32, 40, 43, 36, 41, 45, 43, 30]], [[0, 0, 0, 0, 0, 0, 0, 0, 0, 0, 0, 0, 0, 0, 0, 0, 0, 0, 0, 0, 0, 0, 0, 0, 0, 0, 0, 0, 0, 0, 0, 0, 0, 0, 0, 0, 0, 0, 0, 0, 0, 0, 0, 0, 0, 0, 0, 0, 0, 0, 0, 0, 0, 0, 0, 0, 0, 0, 0, 0], [0, 0, 0, 0, 0, 0, 0, 0, 0, 0, 0, 0, 0, 0, 0, 0, 0, 0, 0, 0, 0, 0, 0, 0, 0, 0, 0, 0, 0, 0, 0, 0, 0, 0, 0, 0, 0, 0, 0, 0, 0, 0, 0, 0, 0, 0, 0, 0, 0, 0, 0, 0, 0, 0, 0, 0, 0, 0, 0, 0], [0, 0, 0, 0, 0, 0, 0, 0, 0, 0, 0, 0, 0, 0, 0, 0, 0, 0, 0, 0, 0, 0, 0, 0, 0, 0, 0, 0, 0, 0, 0, 0, 0, 0, 0, 0, 0, 0, 0, 0, 0, 0, 0, 0, 0, 0, 0, 0, 0, 0, 0, 0, 0, 0, 0, 0, 0, 0, 0, 0], [0, 0, 0, 0, 0, 0, 0, 0, 0, 0, 0, 0, 0, 0, 0, 0, 0, 0, 0, 0, 0, 0, 0, 0, 0, 0, 0, 0, 0, 0, 0, 0, 0, 0, 0, 0, 0, 0, 0, 0, 0, 0, 0, 0, 0, 0, 0, 0, 0, 0, 0, 0, 0, 0, 0, 0, 0, 0, 0, 0], [0, 0, 0, 0, 0, 0, 0, 0, 0, 0, 0, 0, 0, 0, 0, 0, 0, 0, 0, 0, 0, 0, 0, 0, 0, 0, 0, 0, 0, 0, 0, 0, 0, 0, 0, 0, 0, 0, 0, 0, 0, 0, 0, 0, 0, 0, 0, 0, 0, 0, 0, 0, 0, 0, 0, 0, 0, 0, 0, 0], [0, 0, 0, 0, 0, 0, 0, 0, 0, 0, 0, 0, 0, 0, 0, 0, 0, 0, 0, 0, 0, 0, 0, 0, 0, 0, 0, 0, 0, 0, 0, 0, 0, 0, 0, 0, 0, 0, 0, 0, 0, 0, 0, 0, 0, 0, 0, 0, 0, 0, 0, 0, 0, 0, 0, 0, 0, 0, 0, 0], [0, 0, 0, 0, 0, 0, 0, 0, 0, 0, 0, 0, 0, 0, 0, 0, 0, 0, 0, 0, 0, 0, 0, 0, 0, 0, 0, 0, 0, 0, 0, 0, 0, 0, 0, 0, 0, 0, 0, 0, 0, 0, 0, 0, 0, 0, 0, 0, 0, 0, 0, 0, 0, 0, 0, 0, 0, 0, 0, 0], [0, 0, 0, 0, 0, 0, 0, 0, 0, 0, 0, 0, 0, 0, 0, 0, 0, 0, 0, 0, 0, 0, 0, 0, 0, 0, 0, 0, 0, 0, 0, 0, 0, 0, 0, 0, 0, 0, 0, 0, 0, 0, 0, 0, 0, 0, 0, 0, 0, 0, 0, 0, 0, 0, 0, 0, 0, 0, 0, 0], [0, 0, 0, 0, 0, 0, 0, 0, 0, 0, 0, 0, 0, 0, 0, 0, 0, 0, 0, 0, 0, 0, 0, 0, 0, 0, 0, 0, 0, 0, 0, 0, 0, 0, 0, 0, 0, 0, 0, 0, 0, 0, 0, 0, 0, 0, 0, 0, 0, 0, 0, 0, 0, 0, 0, 0, 0, 0, 0, 0], [44, 34, 36, 33, 41, 30, 32, 50, 39, 38, 44, 41, 37, 41, 35, 38, 37, 31, 47, 34, 45, 31, 50, 38, 49, 36, 37, 40, 33, 40, 32, 32, 30, 43, 32, 42, 43, 48, 45, 45, 40, 31, 48, 37, 43, 36, 31, 40, 37, 49, 33, 38, 38, 35, 34, 39, 40, 45, 35, 31]], [[0, 0, 0, 0, 0, 0, 0, 0, 0, 0, 0, 0, 0, 0, 0, 0, 0, 0, 0, 0, 0, 0, 0, 0, 0, 0, 0, 0, 0, 0, 0, 0, 0, 0, 0, 0, 0, 0, 0, 0, 0, 0, 0, 0, 0, 0, 0, 0, 0, 0, 0, 0, 0, 0, 0, 0, 0, 0, 0, 0], [0, 0, 0, 0, 0, 0, 0, 0, 0, 0, 0, 0, 0, 0, 0, 0, 0, 0, 0, 0, 0, 0, 0, 0, 0, 0, 0, 0, 0, 0, 0, 0, 0, 0, 0, 0, 0, 0, 0, 0, 0, 0, 0, 0, 0, 0, 0, 0, 0, 0, 0, 0, 0, 0, 0, 0, 0, 0, 0, 0], [0, 0, 0, 0, 0, 0, 0, 0, 0, 0, 0, 0, 0, 0, 0, 0, 0, 0, 0, 0, 0, 0, 0, 0, 0, 0, 0, 0, 0, 0, 0, 0, 0, 0, 0, 0, 0, 0, 0, 0, 0, 0, 0, 0, 0, 0, 0, 0, 0, 0, 0, 0, 0, 0, 0, 0, 0, 0, 0, 0], [0, 0, 0, 0, 0, 0, 0, 0, 0, 0, 0, 0, 0, 0, 0, 0, 0, 0, 0, 0, 0, 0, 0, 0, 0, 0, 0, 0, 0, 0, 0, 0, 0, 0, 0, 0, 0, 0, 0, 0, 0, 0, 0, 0, 0, 0, 0, 0, 0, 0, 0, 0, 0, 0, 0, 0, 0, 0, 0, 0], [0, 0, 0, 0, 0, 0, 0, 0, 0, 0, 0, 0, 0, 0, 0, 0, 0, 0, 0, 0, 0, 0, 0, 0, 0, 0, 0, 0, 0, 0, 0, 0, 0, 0, 0, 0, 0, 0, 0, 0, 0, 0, 0, 0, 0, 0, 0, 0, 0, 0, 0, 0, 0, 0, 0, 0, 0, 0, 0, 0], [0, 0, 0, 0, 0, 0, 0, 0, 0, 0, 0, 0, 0, 0, 0, 0, 0, 0, 0, 0, 0, 0, 0, 0, 0, 0, 0, 0, 0, 0, 0, 0, 0, 0, 0, 0, 0, 0, 0, 0, 0, 0, 0, 0, 0, 0, 0, 0, 0, 0, 0, 0, 0, 0, 0, 0, 0, 0, 0, 0], [0, 0, 0, 0, 0, 0, 0, 0, 0, 0, 0, 0, 0, 0, 0, 0, 0, 0, 0, 0, 0, 0, 0, 0, 0, 0, 0, 0, 0, 0, 0, 0, 0, 0, 0, 0, 0, 0, 0, 0, 0, 0, 0, 0, 0, 0, 0, 0, 0, 0, 0, 0, 0, 0, 0, 0, 0, 0, 0, 0], [0, 0, 0, 0, 0, 0, 0, 0, 0, 0, 0, 0, 0, 0, 0, 0, 0, 0, 0, 0, 0, 0, 0, 0, 0, 0, 0, 0, 0, 0, 0, 0, 0, 0, 0, 0, 0, 0, 0, 0, 0, 0, 0, 0, 0, 0, 0, 0, 0, 0, 0, 0, 0, 0, 0, 0, 0, 0, 0, 0], [0, 0, 0, 0, 0, 0, 0, 0, 0, 0, 0, 0, 0, 0, 0, 0, 0, 0, 0, 0, 0, 0, 0, 0, 0, 0, 0, 0, 0, 0, 0, 0, 0, 0, 0, 0, 0, 0, 0, 0, 0, 0, 0, 0, 0, 0, 0, 0, 0, 0, 0, 0, 0, 0, 0, 0, 0, 0, 0, 0], [0, 0, 0, 0, 0, 0, 0, 0, 0, 0, 0, 0, 0, 0, 0, 0, 0, 0, 0, 0, 0, 0, 0, 0, 0, 0, 0, 0, 0, 0, 0, 0, 0, 0, 0, 0, 0, 0, 0, 0, 0, 0, 0, 0, 0, 0, 0, 0, 0, 0, 0, 0, 0, 0, 0, 0, 0, 0, 0, 0]]];

q = [[[25, 110], [24, 115], [16, 124], [25, 109], [5, 108], [14, 114], [10, 125], [14, 123], [23, 115], [21, 109], [20, 109], [22, 114], [22, 121], [12, 108], [22, 110], [9, 125], [15, 125], [17, 106], [23, 115], [7, 121], [14, 119], [10, 107], [6, 116], [6, 114], [8, 110], [22, 118], [14, 111], [14, 112], [21, 123], [25, 105], [23, 124], [20, 118], [17, 113], [5, 122], [17, 123], [13, 109], [7, 115], [25, 115], [21, 106], [21, 107], [25, 125], [16, 121], [14, 108], [7, 112], [9, 120], [7, 107], [7, 119], [15, 120], [22, 120], [14, 115], [25, 124], [17, 124], [9, 111], [19, 115], [20, 118], [6, 113], [7, 123], [6, 116], [22, 117], [6, 105]], [[12, 123], [19, 107], [20, 121], [18, 114], [22, 118], [10, 120], [6, 108], [18, 111], [20, 116], [22, 125], [19, 120], [24, 108], [17, 116], [7, 121], [7, 125], [11, 112], [8, 106], [13, 105], [17, 107], [11, 123], [24, 121], [10, 121], [25, 108], [18, 117], [6, 116], [25, 120], [9, 115], [16, 109], [15, 116], [9, 124], [17, 106], [15, 121], [8, 111], [5, 117], [13, 106], [16, 121], [12, 112], [20, 109], [18, 106], [23, 113], [6, 115], [10, 123], [24, 112], [25, 123], [19, 125], [14, 106], [13, 107], [24, 106], [16, 116], [13, 115], [6, 119], [19, 120], [10, 116], [16, 111], [12, 122], [5, 110], [8, 106], [13, 108], [13, 110], [7, 121]], [[14, 108], [25, 125], [19, 106], [5, 118], [13, 118], [7, 118], [24, 105], [20, 113], [8, 114], [6, 114], [13, 107], [7, 118], [19, 118], [15, 108], [18, 116], [21, 116], [20, 120], [9, 110], [7, 124], [14, 112], [19, 111], [14, 105], [25, 108], [13, 117], [7, 108], [5, 112], [18, 121], [14, 121], [12, 109], [10, 122], [20, 122], [8, 109], [21, 105], [21, 112], [19, 123], [13, 121], [25, 115], [8, 111], [9, 117], [7, 106], [14, 114], [14, 116], [11, 110], [16, 108], [7, 112], [11, 108], [21, 118], [21, 114], [25, 106], [13, 113], [13, 116], [5, 109], [5, 123], [20, 117], [23, 117], [23, 125], [25, 120], [13, 112], [19, 109], [7, 118]], [[20, 116], [15, 121], [11, 105], [16, 122], [20, 118], [21, 125], [20, 118], [17, 113], [7, 123], [8, 107], [10, 109], [13, 119], [5, 124], [6, 111], [24, 117], [22, 122], [6, 122], [5, 105], [9, 105], [25, 110], [5, 122], [9, 111], [7, 119], [9, 107], [20, 124], [5, 125], [13, 123], [25, 125], [5, 124], [12, 117], [12, 113], [23, 108], [16, 107], [21, 117], [13, 109], [6, 118], [8, 117], [5, 105], [21, 123], [20, 125], [8, 107], [20, 108], [15, 119], [7, 107], [11, 117], [25, 115], [20, 115], [10, 123], [11, 114], [9, 118], [13, 109], [24, 125], [18, 109], [6, 116], [11, 115], [19, 124], [6, 113], [23, 108], [22, 110], [7, 107]], [[18, 109], [8, 111], [23, 111], [16, 115], [20, 123], [22, 119], [23, 114], [13, 109], [6, 117], [24, 112], [5, 109], [25, 111], [23, 110], [8, 105], [21, 123], [12, 110], [19, 106], [8, 120], [8, 108], [13, 112], [17, 115], [5, 109], [9, 111], [7, 110], [23, 110], [18, 110], [8, 116], [10, 118], [12, 125], [17, 116], [22, 116], [23, 111], [25, 116], [14, 119], [25, 110], [5, 108], [15, 125], [20, 116], [23, 113], [21, 112], [15, 111], [16, 113], [13, 109], [18, 109], [21, 110], [18, 112], [5, 112], [24, 122], [22, 105], [17, 112], [7, 124], [10, 119], [14, 125], [7, 108], [24, 117], [14, 118], [9, 116], [8, 112], [13, 119], [16, 123]], [[13, 123], [25, 106], [24, 105], [22, 117], [5, 115], [10, 118], [22, 120], [22, 108], [9, 116], [18, 107], [10, 118], [21, 116], [23, 118], [21, 124], [8, 112], [22, 120], [9, 111], [25, 109], [24, 116], [19, 119], [21, 116], [8, 119], [8, 120], [18, 115], [17, 118], [5, 115], [13, 114], [11, 107], [13, 112], [9, 114], [22, 118], [8, 122], [12, 106], [23, 116], [7, 123], [22, 118], [15, 111], [16, 113], [10, 109], [7, 111], [9, 123], [8, 112], [17, 117], [7, 124], [5, 111], [21, 114], [8, 105], [17, 121], [9, 108], [16, 119], [5, 122], [21, 105], [13, 118], [5, 121], [17, 122], [7, 118], [19, 117], [8, 122], [24, 114], [10, 106]], [[20, 125], [24, 113], [21, 108], [17, 106], [20, 114], [21, 113], [25, 119], [16, 110], [6, 115], [25, 125], [12, 122], [25, 115], [21, 119], [16, 113], [22, 119], [21, 106], [6, 105], [25, 107], [13, 121], [14, 124], [13, 114], [11, 116], [11, 123], [22, 122], [7, 116], [8, 114], [9, 105], [14, 105], [14, 116], [20, 125], [12, 124], [5, 118], [14, 124], [6, 123], [16, 120], [11, 124], [18, 122], [17, 105], [10, 105], [19, 111], [7, 122], [9, 113], [13, 122], [22, 113], [24, 119], [15, 114], [22, 125], [7, 110], [5, 123], [16, 112], [10, 123], [21, 106], [24, 117], [17, 117], [15, 108], [19, 111], [14, 114], [8, 115], [25, 119], [6, 108]], [[10, 123], [15, 107], [16, 117], [25, 106], [15, 116], [12, 117], [14, 122], [20, 125], [24, 119], [22, 108], [19, 108], [8, 121], [9, 112], [7, 124], [23, 105], [22, 123], [25, 115], [14, 115], [23, 105], [22, 120], [23, 116], [21, 109], [11, 109], [21, 115], [6, 122], [24, 117], [11, 111], [25, 117], [18, 117], [8, 118], [25, 106], [23, 109], [22, 110], [25, 116], [9, 125], [18, 125], [16, 122], [17, 108], [12, 118], [24, 120], [25, 110], [16, 109], [8, 124], [11, 112], [13, 117], [9, 117], [13, 110], [20, 108], [6, 119], [21, 121], [14, 119], [17, 111], [24, 125], [21, 125], [15, 121], [17, 114], [17, 123], [15, 114], [17, 105], [5, 114]], [[20, 108], [5, 110], [15, 119], [10, 114], [6, 107], [24, 112], [6, 107], [10, 123], [25, 118], [10, 119], [20, 112], [21, 105], [13, 124], [25, 112], [22, 105], [14, 125], [19, 108], [12, 118], [22, 114], [13, 105], [18, 120], [15, 122], [17, 121], [6, 117], [16, 105], [12, 125], [19, 124], [14, 125], [20, 120], [6, 109], [22, 123], [18, 108], [7, 115], [11, 109], [14, 119], [12, 113], [20, 119], [6, 116], [5, 107], [11, 122], [14, 106], [18, 108], [6, 113], [7, 113], [12, 116], [17, 106], [24, 111], [17, 124], [8, 113], [5, 122], [19, 118], [23, 111], [6, 116], [15, 121], [10, 115], [21, 124], [18, 122], [23, 120], [15, 109], [12, 116]], [[5, 124], [19, 125], [18, 105], [25, 119], [25, 123], [14, 120], [23, 106], [21, 110], [22, 116], [11, 113], [15, 120], [21, 105], [19, 118], [11, 107], [6, 123], [5, 118], [21, 105], [14, 124], [17, 109], [10, 117], [19, 122], [13, 110], [5, 121], [20, 120], [23, 107], [19, 117], [21, 117], [9, 108], [12, 125], [20, 117], [23, 117], [14, 112], [21, 117], [12, 110], [24, 108], [25, 123], [16, 110], [6, 111], [25, 107], [12, 124], [5, 105], [6, 108], [18, 119], [25, 119], [19, 116], [17, 113], [12, 120], [24, 107], [12, 125], [12, 117], [11, 120], [18, 111], [17, 114], [5, 109], [22, 125], [8, 117], [20, 108], [13, 123], [17, 108], [6, 109]]];
Q = [[74, 555], [70, 551], [70, 548], [65, 555], [74, 547], [69, 554], [74, 556], [80, 555], [69, 553], [75, 553]];
